# Synthetic RCP for GISMO 
1	0.69	1.0	-38.9	105.5
2	0.903	1.0	-24.4	105.8
3	0.883	1.0	-10.2	106.1
4	0.892	1.0	4.0	106.3
5	0.984	1.0	17.9	106.5
6	0.703	1.0	31.7	106.7
7	0.925	1.0	45.4	106.8
8	0.819	1.0	58.9	106.9
9	0.87	1.0	-37.6	91.0
10	0.939	1.0	-23.1	91.3
11	0.96	1.0	-8.9	91.6
12	1.0	1.0	5.3	91.9
13	0.982	1.0	19.2	92.1
14	0.905	1.0	33.0	92.2
15	0.938	1.0	46.7	92.4
16	0.932	1.0	60.2	92.4
17	1.0	1.0	-36.4	76.7
18	1.047	1.0	-22.0	77.0
19	1.131	1.0	-7.7	77.3
20	0.85	1.0	6.4	77.5
21	1.0	1.0	20.3	77.7
22	0.949	1.0	34.2	77.9
23	1.001	1.0	47.8	78.0
24	1.044	1.0	61.3	78.1
25	0.833	1.0	-35.5	62.4
26	0.973	1.0	-21.0	62.7
27	0.966	1.0	-6.8	63.0
28	0.981	1.0	7.4	63.2
29	1.0	1.0	21.3	63.4
30	1.008	1.0	35.1	63.6
31	1.088	1.0	48.8	63.7
32	1.002	1.0	62.3	63.8
33	1.0	1.0	-34.7	48.2
34	0.903	1.0	-20.2	48.5
35	0.905	1.0	-6.0	48.8
36	1.005	1.0	8.2	49.0
37	1.0	1.0	22.1	49.2
38	1.041	1.0	35.9	49.4
39	1.03	1.0	49.6	49.5
40	1.019	1.0	63.1	49.6
41	1.011	1.0	-34.0	34.0
42	1.044	1.0	-19.6	34.3
43	1.068	1.0	-5.3	34.6
44	1.087	1.0	8.8	34.9
45	1.121	1.0	22.8	35.1
46	1.015	1.0	36.6	35.2
47	1.049	1.0	50.2	35.4
48	1.0	1.0	63.7	35.4
49	1.005	1.0	-33.5	20.0
50	1.045	1.0	-19.1	20.3
51	1.0	1.0	-4.8	20.6
52	0.872	1.0	9.3	20.8
53	1.022	1.0	23.3	21.0
54	1.091	1.0	37.1	21.2
55	1.0	1.0	50.7	21.3
56	1.085	1.0	64.2	21.4
57	1.066	1.0	-33.2	6.0
58	1.025	1.0	-18.8	6.3
59	1.055	1.0	-4.5	6.6
60	1.007	1.0	9.6	6.8
61	1.026	1.0	23.6	7.0
62	1.027	1.0	37.4	7.2
63	1.08	1.0	51.1	7.3
64	1.009	1.0	64.6	7.4
65	0.981	1.0	-33.0	-7.9
66	0.996	1.0	-18.6	-7.6
67	1.0	1.0	-4.3	-7.3
68	1.022	1.0	9.8	-7.1
69	1.235	1.0	23.8	-6.9
70	1.0	1.0	37.6	-6.7
71	1.0	1.0	51.2	-6.6
72	1.048	1.0	64.7	-6.5
73	1.047	1.0	-33.0	-21.8
74	1.0	1.0	-18.6	-21.4
75	0.887	1.0	-4.3	-21.2
76	1.0	1.0	9.8	-20.9
77	1.086	1.0	23.8	-20.7
78	1.0	1.0	37.6	-20.5
79	1.0	1.0	51.3	-20.4
80	1.0	1.0	64.8	-20.3
81	1.0	1.0	-33.1	-35.5
82	1.0	1.0	-18.7	-35.2
83	1.104	1.0	-4.4	-34.9
84	1.089	1.0	9.7	-34.7
85	1.0	1.0	23.7	-34.5
86	1.0	1.0	37.5	-34.3
87	1.0	1.0	51.1	-34.2
88	0.983	1.0	64.6	-34.1
89	1.0	1.0	-33.4	-49.2
90	1.0	1.0	-19.0	-48.9
91	1.0	1.0	-4.7	-48.6
92	1.0	1.0	9.4	-48.4
93	1.063	1.0	23.4	-48.2
94	1.045	1.0	37.2	-48.0
95	0.952	1.0	50.8	-47.9
96	1.0	1.0	64.3	-47.8
97	1.048	1.0	-33.9	-62.8
98	0.94	1.0	-19.5	-62.5
99	0.892	1.0	-5.2	-62.2
100	1.02	1.0	8.9	-62.0
101	0.982	1.0	22.9	-61.8
102	0.974	1.0	36.7	-61.6
103	1.0	1.0	50.4	-61.5
104	1.0	1.0	63.9	-61.4
105	1.09	1.0	-34.5	-76.4
106	0.731	1.0	-20.1	-76.0
107	0.994	1.0	-5.8	-75.7
108	1.0	1.0	8.3	-75.5
109	0.981	1.0	22.3	-75.3
110	0.779	1.0	36.1	-75.1
111	0.861	1.0	49.7	-75.0
112	1.0	1.0	63.2	-74.9
113	0.931	1.0	-35.3	-89.8
114	0.914	1.0	-20.9	-89.5
115	0.889	1.0	-6.6	-89.2
116	0.872	1.0	7.5	-89.0
117	0.95	1.0	21.5	-88.8
118	0.872	1.0	35.3	-88.6
119	0.892	1.0	49.0	-88.5
120	0.808	1.0	62.5	-88.4
121	0.875	1.0	-36.2	-103.2
122	0.821	1.0	-21.8	-102.9
123	0.874	1.0	-7.5	-102.6
124	0.736	1.0	6.6	-102.3
125	0.941	1.0	20.6	-102.1
126	0.859	1.0	34.4	-102.0
127	0.779	1.0	48.0	-101.8
128	0.745	1.0	61.5	-101.8
